(declare-const sin Real)
(declare-const special Real)
(declare-const p10_8 Real)
(declare-const p17_4 Real)
(declare-const p12_75 Real)
(declare-const fee_bl Real)
(declare-const income Real)
(assert (= p10_8 (* 0.108 (ite (> income 47564) 47564 income))))
(assert (= p12_75 (ite (> income 47564) (* 0.1275 (- (ite (> income 101200) 101200 income) 47564)) 0)))
(assert (= p17_4 (ite (> income 101200) (* 0.174 (- income 101200)) 0)))
(assert (= special (ite (>= sin 900000000) 0 1)))
(assert (= fee_bl (* special (+ (+ p10_8 p12_75) p17_4))))